; Copyright (c) 2026 The RIINA Authors. All rights reserved.
; Copyright (c) 2026 The RIINA Authors.
; Auto-generated from 02_FORMAL/coq/domains/SingaporeHealthInfo.v (28 assertions)
; Generated by scripts/generate-full-stack.py
; Module: SingaporeHealthInfo

(set-logic ALL)
(set-option :produce-models true)

; SGHealthcareProvider (matches Coq: Inductive SGHealthcareProvider)
(declare-datatypes ((SGHealthcareProvider 0)) (((PublicHospital) (PrivateHospital) (GPClinic) (SpecialistClinic) (Polyclinic) (Pharmacy_SG))))

; HealthInfoCategory (matches Coq: Inductive HealthInfoCategory)
(declare-datatypes ((HealthInfoCategory 0)) (((GeneralHealth) (MentalHealthSG) (HIV_STI_SG) (GeneticInfo) (SubstanceAbuse))))

; UseType (matches Coq: Inductive UseType)
(declare-datatypes ((UseType 0)) (((Treatment) (Research) (PublicHealth) (InsuranceUnderwriting) (Employment))))

; hib_cybersecurity (matches Coq: Definition hib_cybersecurity)
(define-fun hib_cybersecurity ((r SGHealthRecord)) Prop
  true)

; nehr_sharing_compliant (matches Coq: Definition nehr_sharing_compliant)
(define-fun nehr_sharing_compliant ((r SGHealthRecord)) Prop
  true)

; hib_audit_compliant (matches Coq: Definition hib_audit_compliant)
(define-fun hib_audit_compliant ((r SGHealthRecord)) Prop
  true)

; sg_health_sensitive (matches Coq: Definition sg_health_sensitive)
(define-fun sg_health_sensitive ((c HealthInfoCategory)) Prop
  true)

; sensitive_health_protected (matches Coq: Definition sensitive_health_protected)
(define-fun sensitive_health_protected ((r SGHealthRecord)) Prop
  true)

; use_permitted (matches Coq: Definition use_permitted)
(define-fun use_permitted ((u UseType)) Prop
  true)

; hib_fully_compliant (matches Coq: Definition hib_fully_compliant)
(define-fun hib_fully_compliant ((r SGHealthRecord)) Prop
  true)

; hib_access_deadline (matches Coq: Definition hib_access_deadline)
(define-fun hib_access_deadline () Int 504)

; patient_access_fulfilled (matches Coq: Definition patient_access_fulfilled)
(define-fun patient_access_fulfilled ((req PatientAccessRequest)) Prop
  true)

; correction_properly_logged (matches Coq: Definition correction_properly_logged)
(define-fun correction_properly_logged ((c HealthDataCorrection)) Prop
  true)

; exchange_authorized (matches Coq: Definition exchange_authorized)
(define-fun exchange_authorized ((ex HealthDataExchange)) Prop
  true)

; hib_penalty_exposure (matches Coq: Definition hib_penalty_exposure)
(define-fun hib_penalty_exposure ((r SGHealthRecord)) Prop
  true)

; public_hospital_nehr_mandatory (matches Coq: Definition public_hospital_nehr_mandatory)
(define-fun public_hospital_nehr_mandatory ((r SGHealthRecord)) Prop
  true)

; hib_req_1 (matches Coq: Theorem hib_req_1)
(assert (= true true)) ; hib_req_1 [untranslatable]

; hib_req_2 (matches Coq: Theorem hib_req_2)
(assert (= true true)) ; hib_req_2 [untranslatable]

; hib_req_3 (matches Coq: Theorem hib_req_3)
(assert (= true true)) ; hib_req_3 [untranslatable]

; hib_req_4 (matches Coq: Theorem hib_req_4)
(assert (= true true)) ; hib_req_4 [untranslatable]

; hib_prohibited_insurance (matches Coq: Theorem hib_prohibited_insurance)
(assert (= true true)) ; hib_prohibited_insurance [untranslatable]

; hib_prohibited_employment (matches Coq: Theorem hib_prohibited_employment)
(assert (= true true)) ; hib_prohibited_employment [untranslatable]

; hib_treatment_allowed (matches Coq: Theorem hib_treatment_allowed)
(assert (= true true)) ; hib_treatment_allowed [untranslatable]

; hib_composition (matches Coq: Theorem hib_composition)
(assert (= true true)) ; hib_composition [untranslatable]

; sg_provider_coverage (matches Coq: Theorem sg_provider_coverage)
(assert (= true true)) ; sg_provider_coverage [untranslatable]

; health_category_coverage (matches Coq: Theorem health_category_coverage)
(assert (= true true)) ; health_category_coverage [untranslatable]

; patient_access_right (matches Coq: Theorem patient_access_right)
(assert (= true true)) ; patient_access_right [untranslatable]

; patient_access_late_violation (matches Coq: Theorem patient_access_late_violation)
(assert (= true true)) ; patient_access_late_violation [untranslatable]

; data_correction_logged (matches Coq: Theorem data_correction_logged)
(assert (= true true)) ; data_correction_logged [untranslatable]

; cross_institutional_exchange (matches Coq: Theorem cross_institutional_exchange)
(assert (= true true)) ; cross_institutional_exchange [untranslatable]

; general_health_not_sensitive (matches Coq: Theorem general_health_not_sensitive)
(assert (= true true)) ; general_health_not_sensitive [untranslatable]

; mental_health_is_sensitive (matches Coq: Theorem mental_health_is_sensitive)
(assert (= true true)) ; mental_health_is_sensitive [untranslatable]

; hiv_sti_is_sensitive (matches Coq: Theorem hiv_sti_is_sensitive)
(assert (= true true)) ; hiv_sti_is_sensitive [untranslatable]

; genetic_info_is_sensitive (matches Coq: Theorem genetic_info_is_sensitive)
(assert (= true true)) ; genetic_info_is_sensitive [untranslatable]

; nehr_requires_encryption (matches Coq: Theorem nehr_requires_encryption)
(assert (= true true)) ; nehr_requires_encryption [untranslatable]

; nehr_requires_sharing (matches Coq: Theorem nehr_requires_sharing)
(assert (= true true)) ; nehr_requires_sharing [untranslatable]

; use_type_coverage (matches Coq: Theorem use_type_coverage)
(assert (= true true)) ; use_type_coverage [untranslatable]

; research_allowed (matches Coq: Theorem research_allowed)
(assert (= true true)) ; research_allowed [untranslatable]

; public_health_allowed (matches Coq: Theorem public_health_allowed)
(assert (= true true)) ; public_health_allowed [untranslatable]

; hib_full_implies_cybersecurity (matches Coq: Theorem hib_full_implies_cybersecurity)
(assert (= true true)) ; hib_full_implies_cybersecurity [untranslatable]

; hib_full_implies_audit (matches Coq: Theorem hib_full_implies_audit)
(assert (= true true)) ; hib_full_implies_audit [untranslatable]

; hib_full_implies_nehr (matches Coq: Theorem hib_full_implies_nehr)
(assert (= true true)) ; hib_full_implies_nehr [untranslatable]

; cybersecurity_eliminates_penalty (matches Coq: Theorem cybersecurity_eliminates_penalty)
(assert (= true true)) ; cybersecurity_eliminates_penalty [untranslatable]

; public_hospital_must_share (matches Coq: Theorem public_hospital_must_share)
(assert (= true true)) ; public_hospital_must_share [untranslatable]

; Verify all assertions are satisfiable
(check-sat)
(exit)
